
;this file is automatically generated: Thu Jan 02 16:54:47 GMT 2020

;declarations generated

(declare-fun oclExcludes ( Int Int) Bool)
(declare-fun Cardinality ( Int) Int)
(declare-fun type_956c7e2f_8840_4664_8ea7_b9b5a9bed5f0_Class19 ( Int) Bool)
(declare-fun type_956c7e2f_8840_4664_8ea7_b9b5a9bed5f0_Class46 ( Int) Bool)
(declare-fun oclSelect ( Int Bool) Int)
(declare-fun type_956c7e2f_8840_4664_8ea7_b9b5a9bed5f0_Class5 ( Int) Bool)
(declare-fun type_956c7e2f_8840_4664_8ea7_b9b5a9bed5f0_Class2 ( Int) Bool)
(declare-fun obj_bf0cea0d_6dbf_436b_b786_bc0bc9dc90a4 ( Int) Int)
(declare-fun Enum0 ( Int) Int)
(declare-fun Enum1 ( Int) Int)
(declare-fun Enum2 ( Int) Int)
(declare-fun class5_Class5BoolAttr2 ( Int) Bool)
(declare-fun container_ ( Int) Int)
(declare-fun oclIncludes ( Int Int) Bool)
(declare-fun ObjAt ( Int Int) Int)

;formula(s) generated
(assert (! (forall ((v Int)) (=> (and (and (and ( type_956c7e2f_8840_4664_8ea7_b9b5a9bed5f0_Class5 v )  ( type_956c7e2f_8840_4664_8ea7_b9b5a9bed5f0_Class46 v ) ) ( type_956c7e2f_8840_4664_8ea7_b9b5a9bed5f0_Class19 v ) ) ( type_956c7e2f_8840_4664_8ea7_b9b5a9bed5f0_Class2 v ) ) ( class5_Class5BoolAttr2 ( obj_bf0cea0d_6dbf_436b_b786_bc0bc9dc90a4 v )  ) )):named l0))
(assert (exists ((o Int)) (and (and (and ( type_956c7e2f_8840_4664_8ea7_b9b5a9bed5f0_Class5 ( obj_bf0cea0d_6dbf_436b_b786_bc0bc9dc90a4 o )  )  ( type_956c7e2f_8840_4664_8ea7_b9b5a9bed5f0_Class46 ( obj_bf0cea0d_6dbf_436b_b786_bc0bc9dc90a4 o )  ) ) ( type_956c7e2f_8840_4664_8ea7_b9b5a9bed5f0_Class19 ( obj_bf0cea0d_6dbf_436b_b786_bc0bc9dc90a4 o )  ) ) ( type_956c7e2f_8840_4664_8ea7_b9b5a9bed5f0_Class2 ( obj_bf0cea0d_6dbf_436b_b786_bc0bc9dc90a4 o )  ) )))

 ;end of formula 